words_hard_train/8436.qaiger
aag 19 9 0 1 10
2
4
8
12
14
18
22
26
28
39
6 3 5
10 7 9
16 12 14
20 16 18
24 20 22
30 27 29
32 25 30
34 10 32
36 2 4
38 35 37
i0 2 y1[0]
i1 1 x1[7]
i2 1 x1[4]
i3 1 x1[0]
i4 1 x1[1]
i5 1 x1[2]
i6 1 x1[3]
i7 1 x1[5]
i8 1 x1[6]
o0 bv[0]
c
simplified
  <=
    1 x1
    add
      add
        1
        << 7
          2 y1
      141
