words_hard_train/8436.qaiger.qdimacs
p cnf 19 31
a 2 4 6 7 9 11 13 14 0
e 1 3 5 8 10 12 15 16 17 18 19 0
1 2 3 0
-1 -3 0
-2 -3 0
3 4 5 0
-3 -5 0
-4 -5 0
-6 -7 8 0
6 -8 0
7 -8 0
-8 -9 10 0
8 -10 0
9 -10 0
-10 -11 12 0
10 -12 0
11 -12 0
13 14 15 0
-13 -15 0
-14 -15 0
12 -15 16 0
-12 -16 0
15 -16 0
-5 -16 17 0
5 -17 0
16 -17 0
-1 -2 18 0
1 -18 0
2 -18 0
17 18 19 0
-17 -19 0
-18 -19 0
-19 0
